p cnf 12 50 
-6 7 8 0
4 3 -7 0
11 3 2 0
7 4 2 0
2 10 -6 0
1 -9 -6 0
5 -6 -12 0
-11 -12 7 0
6 -9 3 0
12 3 9 0
8 -10 3 0
-8 1 -7 0
8 -12 5 0
-6 -4 12 0
-7 -1 2 0
-5 -2 -4 0
-3 12 -10 0
1 -5 -10 0
-5 -4 -9 0
11 9 -1 0
5 11 4 0
4 5 -12 0
-4 -9 -8 0
-6 10 4 0
8 10 -12 0
-6 -7 4 0
-9 -4 -8 0
8 -6 11 0
7 4 1 0
-12 -1 8 0
8 -10 -12 0
11 9 2 0
12 -6 -4 0
-6 -10 -12 0
7 2 -1 0
9 -5 3 0
-3 1 6 0
-11 -7 10 0
12 -8 -5 0
-10 9 3 0
10 -7 2 0
3 12 -9 0
-4 12 -5 0
-3 -12 8 0
4 -7 8 0
-3 1 -12 0
-9 -8 -1 0
8 -1 -11 0
-7 -11 -5 0
-3 -4 12 0
